2616, 0, 0, 55, 1
2617, 0, 1, 84, 0
2618, 0, 2, 49, 2
2619, 0, 3, 37, 3
2620, 0, 4, 34, 4
2621, 1, 0, 36, 4
2622, 1, 1, 57, 1
2623, 1, 2, 65, 2
2624, 1, 3, 51, 0
2625, 1, 4, 90, 3
2626, 2, 0, 45, 4
2627, 2, 1, 43, 2
2628, 2, 2, 32, 1
2629, 2, 3, 67, 3
2630, 2, 4, 88, 0
2631, 3, 0, 91, 3
2632, 3, 1, 41, 4
2633, 3, 2, 50, 2
2634, 3, 3, 97, 0
2635, 3, 4, 72, 1
